db/inputs/24175163696482526245914506151869140.smt2
(set-logic QF_FP)
(declare-const x0 (_ FloatingPoint 11 53))
(declare-const x1 (_ FloatingPoint 11 53))
(declare-const x2 (_ FloatingPoint 11 53))
(declare-const x3 (_ FloatingPoint 11 53))
(declare-const x4 (_ FloatingPoint 11 53))
(declare-const x5 (_ FloatingPoint 11 53))
(declare-const x6 (_ FloatingPoint 11 53))
(assert (fp.geq (fp.sub RNE x4 x4) (fp.neg x2)))
(assert (fp.eq (fp.div RNE x2 x1) (fp.div RNE x5 x0)))
(check-sat)
