db/data/24175163696482526245914506151869140.z3.out
sat
-------------------
78.375181100
